
Gurobi 11.0.3 (linux64) logging started Thu Nov 21 21:04:48 2024

Set parameter LogFile to value "/home/yihong/Coding/OR_SUC/SUC_results_bigM100000_thread4/case24_ieee_rts_theta0.1_epsilon0.025_gurobi_seed50000_num_gen100_N_WDR100_load_scaling_factor1_exact_T28quadra_cost.txt"
Set parameter TimeLimit to value 3600
Gurobi Optimizer version 11.0.3 build v11.0.3rc0 (linux64 - "Ubuntu 20.04.6 LTS")

CPU model: AMD EPYC 7532 32-Core Processor, instruction set [SSE2|AVX|AVX2]
Thread count: 64 physical cores, 128 logical processors, using up to 4 threads

Optimize a model with 60783 rows, 34921 columns and 831994 nonzeros
Model fingerprint: 0x36ec9b34
Model has 2800 quadratic constraints
Variable types: 32021 continuous, 2900 integer (2900 binary)
Coefficient statistics:
  Matrix range     [1e-04, 1e+05]
  QMatrix range    [2e-03, 8e-03]
  QLMatrix range   [2e-01, 6e+01]
  Objective range  [1e+00, 1e+00]
  Bounds range     [1e+00, 1e+00]
  RHS range        [1e+00, 1e+05]
Presolve removed 49167 rows and 15060 columns
Presolve time: 0.32s
Presolved: 11616 rows, 19861 columns, 72734 nonzeros
Presolved model has 2800 quadratic constraint(s)
Variable types: 16992 continuous, 2869 integer (2869 binary)

Root relaxation: objective 4.274260e+04, 9870 iterations, 0.29 seconds (0.44 work units)

    Nodes    |    Current Node    |     Objective Bounds      |     Work
 Expl Unexpl |  Obj  Depth IntInf | Incumbent    BestBd   Gap | It/Node Time

     0     0 42742.5955    0    3          - 42742.5955      -     -    0s
     0     0 300083.132    0  960          - 300083.132      -     -    1s
     0     0 350033.177    0  992          - 350033.177      -     -    1s
     0     0 690947.021    0  936          - 690947.021      -     -    1s
     0     0 691169.668    0  669          - 691169.668      -     -    2s
     0     0 691860.351    0  487          - 691860.351      -     -    2s
     0     0 691860.479    0  487          - 691860.479      -     -    2s
     0     0 692055.290    0  487          - 692055.290      -     -    2s
     0     0 692056.691    0  487          - 692056.691      -     -    2s
     0     2 692077.333    0  487          - 692077.333      -     -    2s
   278   294 692385.402   64  423          - 692140.914      -  30.1    5s
H  777   316                    692386.23599 692140.914  0.04%  21.0    6s
*  777   316             250    692386.23599 692140.914  0.04%  21.0    6s

Cutting planes:
  Gomory: 7
  Implied bound: 504
  MIR: 96
  Flow cover: 309
  PSD: 6

Explored 889 nodes (45798 simplex iterations) in 6.95 seconds (8.48 work units)
Thread count was 4 (of 128 available processors)

Solution count 2: 692386 692386 

Optimal solution found (tolerance 1.00e-03)
Warning: max constraint violation (5.7523e-07) exceeds tolerance
Best objective 6.923862359936e+05, best bound 6.921409142291e+05, gap 0.0354%
